MTSP.lp
\* Multiple Travelling Salesmen Problem *\
Minimize
Sum_of_Tour_Costs: 509 route_A_B + 501 route_A_C + 312 route_A_D
 + 1019 route_A_E + 736 route_A_F + 656 route_A_G + 60 route_A_H
 + 1039 route_A_I + 726 route_A_J + 2314 route_A_K + 479 route_A_L
 + 448 route_A_M + 479 route_A_N + 619 route_A_O + 150 route_A_P
 + 509 route_B_A + 126 route_B_C + 474 route_B_D + 1526 route_B_E
 + 1226 route_B_F + 1133 route_B_G + 532 route_B_H + 1449 route_B_I
 + 1122 route_B_J + 2789 route_B_K + 958 route_B_L + 941 route_B_M
 + 978 route_B_N + 1127 route_B_O + 542 route_B_P + 501 route_C_A
 + 126 route_C_B + 541 route_C_D + 1516 route_C_E + 1184 route_C_F
 + 1084 route_C_G + 536 route_C_H + 1371 route_C_I + 1045 route_C_J
 + 2728 route_C_K + 913 route_C_L + 904 route_C_M + 946 route_C_N
 + 1115 route_C_O + 499 route_C_P + 312 route_D_A + 474 route_D_B
 + 541 route_D_C + 1157 route_D_E + 980 route_D_F + 919 route_D_G
 + 271 route_D_H + 1333 route_D_I + 1029 route_D_J + 2553 route_D_K
 + 751 route_D_L + 704 route_D_M + 720 route_D_N + 783 route_D_O
 + 455 route_D_P + 1019 route_E_A + 1526 route_E_B + 1516 route_E_C
 + 1157 route_E_D + 478 route_E_F + 583 route_E_G + 996 route_E_H
 + 858 route_E_I + 855 route_E_J + 1504 route_E_K + 677 route_E_L
 + 651 route_E_M + 600 route_E_N + 401 route_E_O + 1033 route_E_P
 + 736 route_F_A + 1226 route_F_B + 1184 route_F_C + 980 route_F_D
 + 478 route_F_E + 115 route_F_G + 740 route_F_H + 470 route_F_I
 + 379 route_F_J + 1581 route_F_K + 271 route_F_L + 289 route_F_M
 + 261 route_F_N + 308 route_F_O + 687 route_F_P + 656 route_G_A
 + 1133 route_G_B + 1084 route_G_C + 919 route_G_D + 583 route_G_E
 + 115 route_G_F + 667 route_G_H + 455 route_G_I + 288 route_G_J
 + 1661 route_G_K + 177 route_G_L + 216 route_G_M + 207 route_G_N
 + 343 route_G_O + 592 route_G_P + 60 route_H_A + 532 route_H_B
 + 536 route_H_C + 271 route_H_D + 996 route_H_E + 740 route_H_F
 + 667 route_H_G + 1066 route_H_I + 759 route_H_J + 2320 route_H_K
 + 493 route_H_L + 454 route_H_M + 479 route_H_N + 598 route_H_O
 + 206 route_H_P + 1039 route_I_A + 1449 route_I_B + 1371 route_I_C
 + 1333 route_I_D + 858 route_I_E + 470 route_I_F + 455 route_I_G
 + 1066 route_I_H + 328 route_I_J + 1387 route_I_K + 591 route_I_L
 + 650 route_I_M + 656 route_I_N + 776 route_I_O + 933 route_I_P
 + 726 route_J_A + 1122 route_J_B + 1045 route_J_C + 1029 route_J_D
 + 855 route_J_E + 379 route_J_F + 288 route_J_G + 759 route_J_H
 + 328 route_J_I + 1697 route_J_K + 333 route_J_L + 400 route_J_M
 + 427 route_J_N + 622 route_J_O + 610 route_J_P + 2314 route_K_A
 + 2789 route_K_B + 2728 route_K_C + 2553 route_K_D + 1504 route_K_E
 + 1581 route_K_F + 1661 route_K_G + 2320 route_K_H + 1387 route_K_I
 + 1697 route_K_J + 1838 route_K_L + 1868 route_K_M + 1841 route_K_N
 + 1789 route_K_O + 2248 route_K_P + 479 route_L_A + 958 route_L_B
 + 913 route_L_C + 751 route_L_D + 677 route_L_E + 271 route_L_F
 + 177 route_L_G + 493 route_L_H + 591 route_L_I + 333 route_L_J
 + 1838 route_L_K + 68 route_L_M + 105 route_L_N + 336 route_L_O
 + 417 route_L_P + 448 route_M_A + 941 route_M_B + 904 route_M_C
 + 704 route_M_D + 651 route_M_E + 289 route_M_F + 216 route_M_G
 + 454 route_M_H + 650 route_M_I + 400 route_M_J + 1868 route_M_K
 + 68 route_M_L + 52 route_M_N + 287 route_M_O + 406 route_M_P + 479 route_N_A
 + 978 route_N_B + 946 route_N_C + 720 route_N_D + 600 route_N_E
 + 261 route_N_F + 207 route_N_G + 479 route_N_H + 656 route_N_I
 + 427 route_N_J + 1841 route_N_K + 105 route_N_L + 52 route_N_M
 + 237 route_N_O + 449 route_N_P + 619 route_O_A + 1127 route_O_B
 + 1115 route_O_C + 783 route_O_D + 401 route_O_E + 308 route_O_F
 + 343 route_O_G + 598 route_O_H + 776 route_O_I + 622 route_O_J
 + 1789 route_O_K + 336 route_O_L + 287 route_O_M + 237 route_O_N
 + 636 route_O_P + 150 route_P_A + 542 route_P_B + 499 route_P_C
 + 455 route_P_D + 1033 route_P_E + 687 route_P_F + 592 route_P_G
 + 206 route_P_H + 933 route_P_I + 610 route_P_J + 2248 route_P_K
 + 417 route_P_L + 406 route_P_M + 449 route_P_N + 636 route_P_O
Subject To
Number_of_routes_from_start: route_A_B + route_A_C + route_A_D + route_A_E
 + route_A_F + route_A_G + route_A_H + route_A_I + route_A_J + route_A_K
 + route_A_L + route_A_M + route_A_N + route_A_O + route_A_P = 2
Number_of_routes_to_start: route_B_A + route_C_A + route_D_A + route_E_A
 + route_F_A + route_G_A + route_H_A + route_I_A + route_J_A + route_K_A
 + route_L_A + route_M_A + route_N_A + route_O_A + route_P_A = 2
_C1: route_A_B - route_B_A + u_B <= 2
_C10: route_A_K - route_K_A + u_K <= 2
_C100: 3 route_E_O + route_O_E + u_E - u_O <= 2
_C101: 3 route_E_P + route_P_E + u_E - u_P <= 2
_C102: route_B_F + 3 route_F_B - u_B + u_F <= 2
_C103: route_C_F + 3 route_F_C - u_C + u_F <= 2
_C104: route_D_F + 3 route_F_D - u_D + u_F <= 2
_C105: route_E_F + 3 route_F_E - u_E + u_F <= 2
_C106: 3 route_F_G + route_G_F + u_F - u_G <= 2
_C107: 3 route_F_H + route_H_F + u_F - u_H <= 2
_C108: 3 route_F_I + route_I_F + u_F - u_I <= 2
_C109: 3 route_F_J + route_J_F + u_F - u_J <= 2
_C11: route_A_L - route_L_A + u_L <= 2
_C110: 3 route_F_K + route_K_F + u_F - u_K <= 2
_C111: 3 route_F_L + route_L_F + u_F - u_L <= 2
_C112: 3 route_F_M + route_M_F + u_F - u_M <= 2
_C113: 3 route_F_N + route_N_F + u_F - u_N <= 2
_C114: 3 route_F_O + route_O_F + u_F - u_O <= 2
_C115: 3 route_F_P + route_P_F + u_F - u_P <= 2
_C116: route_B_G + 3 route_G_B - u_B + u_G <= 2
_C117: route_C_G + 3 route_G_C - u_C + u_G <= 2
_C118: route_D_G + 3 route_G_D - u_D + u_G <= 2
_C119: route_E_G + 3 route_G_E - u_E + u_G <= 2
_C12: route_A_M - route_M_A + u_M <= 2
_C120: route_F_G + 3 route_G_F - u_F + u_G <= 2
_C121: 3 route_G_H + route_H_G + u_G - u_H <= 2
_C122: 3 route_G_I + route_I_G + u_G - u_I <= 2
_C123: 3 route_G_J + route_J_G + u_G - u_J <= 2
_C124: 3 route_G_K + route_K_G + u_G - u_K <= 2
_C125: 3 route_G_L + route_L_G + u_G - u_L <= 2
_C126: 3 route_G_M + route_M_G + u_G - u_M <= 2
_C127: 3 route_G_N + route_N_G + u_G - u_N <= 2
_C128: 3 route_G_O + route_O_G + u_G - u_O <= 2
_C129: 3 route_G_P + route_P_G + u_G - u_P <= 2
_C13: route_A_N - route_N_A + u_N <= 2
_C130: route_B_H + 3 route_H_B - u_B + u_H <= 2
_C131: route_C_H + 3 route_H_C - u_C + u_H <= 2
_C132: route_D_H + 3 route_H_D - u_D + u_H <= 2
_C133: route_E_H + 3 route_H_E - u_E + u_H <= 2
_C134: route_F_H + 3 route_H_F - u_F + u_H <= 2
_C135: route_G_H + 3 route_H_G - u_G + u_H <= 2
_C136: 3 route_H_I + route_I_H + u_H - u_I <= 2
_C137: 3 route_H_J + route_J_H + u_H - u_J <= 2
_C138: 3 route_H_K + route_K_H + u_H - u_K <= 2
_C139: 3 route_H_L + route_L_H + u_H - u_L <= 2
_C14: route_A_O - route_O_A + u_O <= 2
_C140: 3 route_H_M + route_M_H + u_H - u_M <= 2
_C141: 3 route_H_N + route_N_H + u_H - u_N <= 2
_C142: 3 route_H_O + route_O_H + u_H - u_O <= 2
_C143: 3 route_H_P + route_P_H + u_H - u_P <= 2
_C144: route_B_I + 3 route_I_B - u_B + u_I <= 2
_C145: route_C_I + 3 route_I_C - u_C + u_I <= 2
_C146: route_D_I + 3 route_I_D - u_D + u_I <= 2
_C147: route_E_I + 3 route_I_E - u_E + u_I <= 2
_C148: route_F_I + 3 route_I_F - u_F + u_I <= 2
_C149: route_G_I + 3 route_I_G - u_G + u_I <= 2
_C15: route_A_P - route_P_A + u_P <= 2
_C150: route_H_I + 3 route_I_H - u_H + u_I <= 2
_C151: 3 route_I_J + route_J_I + u_I - u_J <= 2
_C152: 3 route_I_K + route_K_I + u_I - u_K <= 2
_C153: 3 route_I_L + route_L_I + u_I - u_L <= 2
_C154: 3 route_I_M + route_M_I + u_I - u_M <= 2
_C155: 3 route_I_N + route_N_I + u_I - u_N <= 2
_C156: 3 route_I_O + route_O_I + u_I - u_O <= 2
_C157: 3 route_I_P + route_P_I + u_I - u_P <= 2
_C158: route_B_J + 3 route_J_B - u_B + u_J <= 2
_C159: route_C_J + 3 route_J_C - u_C + u_J <= 2
_C16: route_A_B + u_B >= 2
_C160: route_D_J + 3 route_J_D - u_D + u_J <= 2
_C161: route_E_J + 3 route_J_E - u_E + u_J <= 2
_C162: route_F_J + 3 route_J_F - u_F + u_J <= 2
_C163: route_G_J + 3 route_J_G - u_G + u_J <= 2
_C164: route_H_J + 3 route_J_H - u_H + u_J <= 2
_C165: route_I_J + 3 route_J_I - u_I + u_J <= 2
_C166: 3 route_J_K + route_K_J + u_J - u_K <= 2
_C167: 3 route_J_L + route_L_J + u_J - u_L <= 2
_C168: 3 route_J_M + route_M_J + u_J - u_M <= 2
_C169: 3 route_J_N + route_N_J + u_J - u_N <= 2
_C17: route_A_C + u_C >= 2
_C170: 3 route_J_O + route_O_J + u_J - u_O <= 2
_C171: 3 route_J_P + route_P_J + u_J - u_P <= 2
_C172: route_B_K + 3 route_K_B - u_B + u_K <= 2
_C173: route_C_K + 3 route_K_C - u_C + u_K <= 2
_C174: route_D_K + 3 route_K_D - u_D + u_K <= 2
_C175: route_E_K + 3 route_K_E - u_E + u_K <= 2
_C176: route_F_K + 3 route_K_F - u_F + u_K <= 2
_C177: route_G_K + 3 route_K_G - u_G + u_K <= 2
_C178: route_H_K + 3 route_K_H - u_H + u_K <= 2
_C179: route_I_K + 3 route_K_I - u_I + u_K <= 2
_C18: route_A_D + u_D >= 2
_C180: route_J_K + 3 route_K_J - u_J + u_K <= 2
_C181: 3 route_K_L + route_L_K + u_K - u_L <= 2
_C182: 3 route_K_M + route_M_K + u_K - u_M <= 2
_C183: 3 route_K_N + route_N_K + u_K - u_N <= 2
_C184: 3 route_K_O + route_O_K + u_K - u_O <= 2
_C185: 3 route_K_P + route_P_K + u_K - u_P <= 2
_C186: route_B_L + 3 route_L_B - u_B + u_L <= 2
_C187: route_C_L + 3 route_L_C - u_C + u_L <= 2
_C188: route_D_L + 3 route_L_D - u_D + u_L <= 2
_C189: route_E_L + 3 route_L_E - u_E + u_L <= 2
_C19: route_A_E + u_E >= 2
_C190: route_F_L + 3 route_L_F - u_F + u_L <= 2
_C191: route_G_L + 3 route_L_G - u_G + u_L <= 2
_C192: route_H_L + 3 route_L_H - u_H + u_L <= 2
_C193: route_I_L + 3 route_L_I - u_I + u_L <= 2
_C194: route_J_L + 3 route_L_J - u_J + u_L <= 2
_C195: route_K_L + 3 route_L_K - u_K + u_L <= 2
_C196: 3 route_L_M + route_M_L + u_L - u_M <= 2
_C197: 3 route_L_N + route_N_L + u_L - u_N <= 2
_C198: 3 route_L_O + route_O_L + u_L - u_O <= 2
_C199: 3 route_L_P + route_P_L + u_L - u_P <= 2
_C2: route_A_C - route_C_A + u_C <= 2
_C20: route_A_F + u_F >= 2
_C200: route_B_M + 3 route_M_B - u_B + u_M <= 2
_C201: route_C_M + 3 route_M_C - u_C + u_M <= 2
_C202: route_D_M + 3 route_M_D - u_D + u_M <= 2
_C203: route_E_M + 3 route_M_E - u_E + u_M <= 2
_C204: route_F_M + 3 route_M_F - u_F + u_M <= 2
_C205: route_G_M + 3 route_M_G - u_G + u_M <= 2
_C206: route_H_M + 3 route_M_H - u_H + u_M <= 2
_C207: route_I_M + 3 route_M_I - u_I + u_M <= 2
_C208: route_J_M + 3 route_M_J - u_J + u_M <= 2
_C209: route_K_M + 3 route_M_K - u_K + u_M <= 2
_C21: route_A_G + u_G >= 2
_C210: route_L_M + 3 route_M_L - u_L + u_M <= 2
_C211: 3 route_M_N + route_N_M + u_M - u_N <= 2
_C212: 3 route_M_O + route_O_M + u_M - u_O <= 2
_C213: 3 route_M_P + route_P_M + u_M - u_P <= 2
_C214: route_B_N + 3 route_N_B - u_B + u_N <= 2
_C215: route_C_N + 3 route_N_C - u_C + u_N <= 2
_C216: route_D_N + 3 route_N_D - u_D + u_N <= 2
_C217: route_E_N + 3 route_N_E - u_E + u_N <= 2
_C218: route_F_N + 3 route_N_F - u_F + u_N <= 2
_C219: route_G_N + 3 route_N_G - u_G + u_N <= 2
_C22: route_A_H + u_H >= 2
_C220: route_H_N + 3 route_N_H - u_H + u_N <= 2
_C221: route_I_N + 3 route_N_I - u_I + u_N <= 2
_C222: route_J_N + 3 route_N_J - u_J + u_N <= 2
_C223: route_K_N + 3 route_N_K - u_K + u_N <= 2
_C224: route_L_N + 3 route_N_L - u_L + u_N <= 2
_C225: route_M_N + 3 route_N_M - u_M + u_N <= 2
_C226: 3 route_N_O + route_O_N + u_N - u_O <= 2
_C227: 3 route_N_P + route_P_N + u_N - u_P <= 2
_C228: route_B_O + 3 route_O_B - u_B + u_O <= 2
_C229: route_C_O + 3 route_O_C - u_C + u_O <= 2
_C23: route_A_I + u_I >= 2
_C230: route_D_O + 3 route_O_D - u_D + u_O <= 2
_C231: route_E_O + 3 route_O_E - u_E + u_O <= 2
_C232: route_F_O + 3 route_O_F - u_F + u_O <= 2
_C233: route_G_O + 3 route_O_G - u_G + u_O <= 2
_C234: route_H_O + 3 route_O_H - u_H + u_O <= 2
_C235: route_I_O + 3 route_O_I - u_I + u_O <= 2
_C236: route_J_O + 3 route_O_J - u_J + u_O <= 2
_C237: route_K_O + 3 route_O_K - u_K + u_O <= 2
_C238: route_L_O + 3 route_O_L - u_L + u_O <= 2
_C239: route_M_O + 3 route_O_M - u_M + u_O <= 2
_C24: route_A_J + u_J >= 2
_C240: route_N_O + 3 route_O_N - u_N + u_O <= 2
_C241: 3 route_O_P + route_P_O + u_O - u_P <= 2
_C242: route_B_P + 3 route_P_B - u_B + u_P <= 2
_C243: route_C_P + 3 route_P_C - u_C + u_P <= 2
_C244: route_D_P + 3 route_P_D - u_D + u_P <= 2
_C245: route_E_P + 3 route_P_E - u_E + u_P <= 2
_C246: route_F_P + 3 route_P_F - u_F + u_P <= 2
_C247: route_G_P + 3 route_P_G - u_G + u_P <= 2
_C248: route_H_P + 3 route_P_H - u_H + u_P <= 2
_C249: route_I_P + 3 route_P_I - u_I + u_P <= 2
_C25: route_A_K + u_K >= 2
_C250: route_J_P + 3 route_P_J - u_J + u_P <= 2
_C251: route_K_P + 3 route_P_K - u_K + u_P <= 2
_C252: route_L_P + 3 route_P_L - u_L + u_P <= 2
_C253: route_M_P + 3 route_P_M - u_M + u_P <= 2
_C254: route_N_P + 3 route_P_N - u_N + u_P <= 2
_C255: route_O_P + 3 route_P_O - u_O + u_P <= 2
_C26: route_A_L + u_L >= 2
_C27: route_A_M + u_M >= 2
_C28: route_A_N + u_N >= 2
_C29: route_A_O + u_O >= 2
_C3: route_A_D - route_D_A + u_D <= 2
_C30: route_A_P + u_P >= 2
_C31: route_A_B + route_B_A <= 1
_C32: route_A_C + route_C_A <= 1
_C33: route_A_D + route_D_A <= 1
_C34: route_A_E + route_E_A <= 1
_C35: route_A_F + route_F_A <= 1
_C36: route_A_G + route_G_A <= 1
_C37: route_A_H + route_H_A <= 1
_C38: route_A_I + route_I_A <= 1
_C39: route_A_J + route_J_A <= 1
_C4: route_A_E - route_E_A + u_E <= 2
_C40: route_A_K + route_K_A <= 1
_C41: route_A_L + route_L_A <= 1
_C42: route_A_M + route_M_A <= 1
_C43: route_A_N + route_N_A <= 1
_C44: route_A_O + route_O_A <= 1
_C45: route_A_P + route_P_A <= 1
_C46: 3 route_B_C + route_C_B + u_B - u_C <= 2
_C47: 3 route_B_D + route_D_B + u_B - u_D <= 2
_C48: 3 route_B_E + route_E_B + u_B - u_E <= 2
_C49: 3 route_B_F + route_F_B + u_B - u_F <= 2
_C5: route_A_F - route_F_A + u_F <= 2
_C50: 3 route_B_G + route_G_B + u_B - u_G <= 2
_C51: 3 route_B_H + route_H_B + u_B - u_H <= 2
_C52: 3 route_B_I + route_I_B + u_B - u_I <= 2
_C53: 3 route_B_J + route_J_B + u_B - u_J <= 2
_C54: 3 route_B_K + route_K_B + u_B - u_K <= 2
_C55: 3 route_B_L + route_L_B + u_B - u_L <= 2
_C56: 3 route_B_M + route_M_B + u_B - u_M <= 2
_C57: 3 route_B_N + route_N_B + u_B - u_N <= 2
_C58: 3 route_B_O + route_O_B + u_B - u_O <= 2
_C59: 3 route_B_P + route_P_B + u_B - u_P <= 2
_C6: route_A_G - route_G_A + u_G <= 2
_C60: route_B_C + 3 route_C_B - u_B + u_C <= 2
_C61: 3 route_C_D + route_D_C + u_C - u_D <= 2
_C62: 3 route_C_E + route_E_C + u_C - u_E <= 2
_C63: 3 route_C_F + route_F_C + u_C - u_F <= 2
_C64: 3 route_C_G + route_G_C + u_C - u_G <= 2
_C65: 3 route_C_H + route_H_C + u_C - u_H <= 2
_C66: 3 route_C_I + route_I_C + u_C - u_I <= 2
_C67: 3 route_C_J + route_J_C + u_C - u_J <= 2
_C68: 3 route_C_K + route_K_C + u_C - u_K <= 2
_C69: 3 route_C_L + route_L_C + u_C - u_L <= 2
_C7: route_A_H - route_H_A + u_H <= 2
_C70: 3 route_C_M + route_M_C + u_C - u_M <= 2
_C71: 3 route_C_N + route_N_C + u_C - u_N <= 2
_C72: 3 route_C_O + route_O_C + u_C - u_O <= 2
_C73: 3 route_C_P + route_P_C + u_C - u_P <= 2
_C74: route_B_D + 3 route_D_B - u_B + u_D <= 2
_C75: route_C_D + 3 route_D_C - u_C + u_D <= 2
_C76: 3 route_D_E + route_E_D + u_D - u_E <= 2
_C77: 3 route_D_F + route_F_D + u_D - u_F <= 2
_C78: 3 route_D_G + route_G_D + u_D - u_G <= 2
_C79: 3 route_D_H + route_H_D + u_D - u_H <= 2
_C8: route_A_I - route_I_A + u_I <= 2
_C80: 3 route_D_I + route_I_D + u_D - u_I <= 2
_C81: 3 route_D_J + route_J_D + u_D - u_J <= 2
_C82: 3 route_D_K + route_K_D + u_D - u_K <= 2
_C83: 3 route_D_L + route_L_D + u_D - u_L <= 2
_C84: 3 route_D_M + route_M_D + u_D - u_M <= 2
_C85: 3 route_D_N + route_N_D + u_D - u_N <= 2
_C86: 3 route_D_O + route_O_D + u_D - u_O <= 2
_C87: 3 route_D_P + route_P_D + u_D - u_P <= 2
_C88: route_B_E + 3 route_E_B - u_B + u_E <= 2
_C89: route_C_E + 3 route_E_C - u_C + u_E <= 2
_C9: route_A_J - route_J_A + u_J <= 2
_C90: route_D_E + 3 route_E_D - u_D + u_E <= 2
_C91: 3 route_E_F + route_F_E + u_E - u_F <= 2
_C92: 3 route_E_G + route_G_E + u_E - u_G <= 2
_C93: 3 route_E_H + route_H_E + u_E - u_H <= 2
_C94: 3 route_E_I + route_I_E + u_E - u_I <= 2
_C95: 3 route_E_J + route_J_E + u_E - u_J <= 2
_C96: 3 route_E_K + route_K_E + u_E - u_K <= 2
_C97: 3 route_E_L + route_L_E + u_E - u_L <= 2
_C98: 3 route_E_M + route_M_E + u_E - u_M <= 2
_C99: 3 route_E_N + route_N_E + u_E - u_N <= 2
route_in_A: route_B_A + route_C_A + route_D_A + route_E_A + route_F_A
 + route_G_A + route_H_A + route_I_A + route_J_A + route_K_A + route_L_A
 + route_M_A + route_N_A + route_O_A + route_P_A = 1
route_in_B: route_A_B + route_C_B + route_D_B + route_E_B + route_F_B
 + route_G_B + route_H_B + route_I_B + route_J_B + route_K_B + route_L_B
 + route_M_B + route_N_B + route_O_B + route_P_B = 1
route_in_C: route_A_C + route_B_C + route_D_C + route_E_C + route_F_C
 + route_G_C + route_H_C + route_I_C + route_J_C + route_K_C + route_L_C
 + route_M_C + route_N_C + route_O_C + route_P_C = 1
route_in_D: route_A_D + route_B_D + route_C_D + route_E_D + route_F_D
 + route_G_D + route_H_D + route_I_D + route_J_D + route_K_D + route_L_D
 + route_M_D + route_N_D + route_O_D + route_P_D = 1
route_in_E: route_A_E + route_B_E + route_C_E + route_D_E + route_F_E
 + route_G_E + route_H_E + route_I_E + route_J_E + route_K_E + route_L_E
 + route_M_E + route_N_E + route_O_E + route_P_E = 1
route_in_F: route_A_F + route_B_F + route_C_F + route_D_F + route_E_F
 + route_G_F + route_H_F + route_I_F + route_J_F + route_K_F + route_L_F
 + route_M_F + route_N_F + route_O_F + route_P_F = 1
route_in_G: route_A_G + route_B_G + route_C_G + route_D_G + route_E_G
 + route_F_G + route_H_G + route_I_G + route_J_G + route_K_G + route_L_G
 + route_M_G + route_N_G + route_O_G + route_P_G = 1
route_in_H: route_A_H + route_B_H + route_C_H + route_D_H + route_E_H
 + route_F_H + route_G_H + route_I_H + route_J_H + route_K_H + route_L_H
 + route_M_H + route_N_H + route_O_H + route_P_H = 1
route_in_I: route_A_I + route_B_I + route_C_I + route_D_I + route_E_I
 + route_F_I + route_G_I + route_H_I + route_J_I + route_K_I + route_L_I
 + route_M_I + route_N_I + route_O_I + route_P_I = 1
route_in_J: route_A_J + route_B_J + route_C_J + route_D_J + route_E_J
 + route_F_J + route_G_J + route_H_J + route_I_J + route_K_J + route_L_J
 + route_M_J + route_N_J + route_O_J + route_P_J = 1
route_in_K: route_A_K + route_B_K + route_C_K + route_D_K + route_E_K
 + route_F_K + route_G_K + route_H_K + route_I_K + route_J_K + route_L_K
 + route_M_K + route_N_K + route_O_K + route_P_K = 1
route_in_L: route_A_L + route_B_L + route_C_L + route_D_L + route_E_L
 + route_F_L + route_G_L + route_H_L + route_I_L + route_J_L + route_K_L
 + route_M_L + route_N_L + route_O_L + route_P_L = 1
route_in_M: route_A_M + route_B_M + route_C_M + route_D_M + route_E_M
 + route_F_M + route_G_M + route_H_M + route_I_M + route_J_M + route_K_M
 + route_L_M + route_N_M + route_O_M + route_P_M = 1
route_in_N: route_A_N + route_B_N + route_C_N + route_D_N + route_E_N
 + route_F_N + route_G_N + route_H_N + route_I_N + route_J_N + route_K_N
 + route_L_N + route_M_N + route_O_N + route_P_N = 1
route_in_O: route_A_O + route_B_O + route_C_O + route_D_O + route_E_O
 + route_F_O + route_G_O + route_H_O + route_I_O + route_J_O + route_K_O
 + route_L_O + route_M_O + route_N_O + route_P_O = 1
route_in_P: route_A_P + route_B_P + route_C_P + route_D_P + route_E_P
 + route_F_P + route_G_P + route_H_P + route_I_P + route_J_P + route_K_P
 + route_L_P + route_M_P + route_N_P + route_O_P = 1
route_out_A: route_A_B + route_A_C + route_A_D + route_A_E + route_A_F
 + route_A_G + route_A_H + route_A_I + route_A_J + route_A_K + route_A_L
 + route_A_M + route_A_N + route_A_O + route_A_P = 1
route_out_B: route_B_A + route_B_C + route_B_D + route_B_E + route_B_F
 + route_B_G + route_B_H + route_B_I + route_B_J + route_B_K + route_B_L
 + route_B_M + route_B_N + route_B_O + route_B_P = 1
route_out_C: route_C_A + route_C_B + route_C_D + route_C_E + route_C_F
 + route_C_G + route_C_H + route_C_I + route_C_J + route_C_K + route_C_L
 + route_C_M + route_C_N + route_C_O + route_C_P = 1
route_out_D: route_D_A + route_D_B + route_D_C + route_D_E + route_D_F
 + route_D_G + route_D_H + route_D_I + route_D_J + route_D_K + route_D_L
 + route_D_M + route_D_N + route_D_O + route_D_P = 1
route_out_E: route_E_A + route_E_B + route_E_C + route_E_D + route_E_F
 + route_E_G + route_E_H + route_E_I + route_E_J + route_E_K + route_E_L
 + route_E_M + route_E_N + route_E_O + route_E_P = 1
route_out_F: route_F_A + route_F_B + route_F_C + route_F_D + route_F_E
 + route_F_G + route_F_H + route_F_I + route_F_J + route_F_K + route_F_L
 + route_F_M + route_F_N + route_F_O + route_F_P = 1
route_out_G: route_G_A + route_G_B + route_G_C + route_G_D + route_G_E
 + route_G_F + route_G_H + route_G_I + route_G_J + route_G_K + route_G_L
 + route_G_M + route_G_N + route_G_O + route_G_P = 1
route_out_H: route_H_A + route_H_B + route_H_C + route_H_D + route_H_E
 + route_H_F + route_H_G + route_H_I + route_H_J + route_H_K + route_H_L
 + route_H_M + route_H_N + route_H_O + route_H_P = 1
route_out_I: route_I_A + route_I_B + route_I_C + route_I_D + route_I_E
 + route_I_F + route_I_G + route_I_H + route_I_J + route_I_K + route_I_L
 + route_I_M + route_I_N + route_I_O + route_I_P = 1
route_out_J: route_J_A + route_J_B + route_J_C + route_J_D + route_J_E
 + route_J_F + route_J_G + route_J_H + route_J_I + route_J_K + route_J_L
 + route_J_M + route_J_N + route_J_O + route_J_P = 1
route_out_K: route_K_A + route_K_B + route_K_C + route_K_D + route_K_E
 + route_K_F + route_K_G + route_K_H + route_K_I + route_K_J + route_K_L
 + route_K_M + route_K_N + route_K_O + route_K_P = 1
route_out_L: route_L_A + route_L_B + route_L_C + route_L_D + route_L_E
 + route_L_F + route_L_G + route_L_H + route_L_I + route_L_J + route_L_K
 + route_L_M + route_L_N + route_L_O + route_L_P = 1
route_out_M: route_M_A + route_M_B + route_M_C + route_M_D + route_M_E
 + route_M_F + route_M_G + route_M_H + route_M_I + route_M_J + route_M_K
 + route_M_L + route_M_N + route_M_O + route_M_P = 1
route_out_N: route_N_A + route_N_B + route_N_C + route_N_D + route_N_E
 + route_N_F + route_N_G + route_N_H + route_N_I + route_N_J + route_N_K
 + route_N_L + route_N_M + route_N_O + route_N_P = 1
route_out_O: route_O_A + route_O_B + route_O_C + route_O_D + route_O_E
 + route_O_F + route_O_G + route_O_H + route_O_I + route_O_J + route_O_K
 + route_O_L + route_O_M + route_O_N + route_O_P = 1
route_out_P: route_P_A + route_P_B + route_P_C + route_P_D + route_P_E
 + route_P_F + route_P_G + route_P_H + route_P_I + route_P_J + route_P_K
 + route_P_L + route_P_M + route_P_N + route_P_O = 1
Bounds
u_B free
u_C free
u_D free
u_E free
u_F free
u_G free
u_H free
u_I free
u_J free
u_K free
u_L free
u_M free
u_N free
u_O free
u_P free
Generals
u_B
u_C
u_D
u_E
u_F
u_G
u_H
u_I
u_J
u_K
u_L
u_M
u_N
u_O
u_P
Binaries
route_A_B
route_A_C
route_A_D
route_A_E
route_A_F
route_A_G
route_A_H
route_A_I
route_A_J
route_A_K
route_A_L
route_A_M
route_A_N
route_A_O
route_A_P
route_B_A
route_B_C
route_B_D
route_B_E
route_B_F
route_B_G
route_B_H
route_B_I
route_B_J
route_B_K
route_B_L
route_B_M
route_B_N
route_B_O
route_B_P
route_C_A
route_C_B
route_C_D
route_C_E
route_C_F
route_C_G
route_C_H
route_C_I
route_C_J
route_C_K
route_C_L
route_C_M
route_C_N
route_C_O
route_C_P
route_D_A
route_D_B
route_D_C
route_D_E
route_D_F
route_D_G
route_D_H
route_D_I
route_D_J
route_D_K
route_D_L
route_D_M
route_D_N
route_D_O
route_D_P
route_E_A
route_E_B
route_E_C
route_E_D
route_E_F
route_E_G
route_E_H
route_E_I
route_E_J
route_E_K
route_E_L
route_E_M
route_E_N
route_E_O
route_E_P
route_F_A
route_F_B
route_F_C
route_F_D
route_F_E
route_F_G
route_F_H
route_F_I
route_F_J
route_F_K
route_F_L
route_F_M
route_F_N
route_F_O
route_F_P
route_G_A
route_G_B
route_G_C
route_G_D
route_G_E
route_G_F
route_G_H
route_G_I
route_G_J
route_G_K
route_G_L
route_G_M
route_G_N
route_G_O
route_G_P
route_H_A
route_H_B
route_H_C
route_H_D
route_H_E
route_H_F
route_H_G
route_H_I
route_H_J
route_H_K
route_H_L
route_H_M
route_H_N
route_H_O
route_H_P
route_I_A
route_I_B
route_I_C
route_I_D
route_I_E
route_I_F
route_I_G
route_I_H
route_I_J
route_I_K
route_I_L
route_I_M
route_I_N
route_I_O
route_I_P
route_J_A
route_J_B
route_J_C
route_J_D
route_J_E
route_J_F
route_J_G
route_J_H
route_J_I
route_J_K
route_J_L
route_J_M
route_J_N
route_J_O
route_J_P
route_K_A
route_K_B
route_K_C
route_K_D
route_K_E
route_K_F
route_K_G
route_K_H
route_K_I
route_K_J
route_K_L
route_K_M
route_K_N
route_K_O
route_K_P
route_L_A
route_L_B
route_L_C
route_L_D
route_L_E
route_L_F
route_L_G
route_L_H
route_L_I
route_L_J
route_L_K
route_L_M
route_L_N
route_L_O
route_L_P
route_M_A
route_M_B
route_M_C
route_M_D
route_M_E
route_M_F
route_M_G
route_M_H
route_M_I
route_M_J
route_M_K
route_M_L
route_M_N
route_M_O
route_M_P
route_N_A
route_N_B
route_N_C
route_N_D
route_N_E
route_N_F
route_N_G
route_N_H
route_N_I
route_N_J
route_N_K
route_N_L
route_N_M
route_N_O
route_N_P
route_O_A
route_O_B
route_O_C
route_O_D
route_O_E
route_O_F
route_O_G
route_O_H
route_O_I
route_O_J
route_O_K
route_O_L
route_O_M
route_O_N
route_O_P
route_P_A
route_P_B
route_P_C
route_P_D
route_P_E
route_P_F
route_P_G
route_P_H
route_P_I
route_P_J
route_P_K
route_P_L
route_P_M
route_P_N
route_P_O
End
